solution status: optimal solution found
objective value:                     152891.635675195
d11(0,0)                                            1 	(obj:0)
d11(2,4)                                            1 	(obj:0)
d11(2,5)                                            1 	(obj:0)
d11(2,6)                                            1 	(obj:0)
d11(2,7)                                            1 	(obj:0)
d11(2,8)                                            1 	(obj:0)
d11(2,9)                                            1 	(obj:0)
d11(2,10)                                           1 	(obj:0)
d11(2,11)                                           1 	(obj:0)
d11(2,12)                                           1 	(obj:0)
d11(3,13)                                           1 	(obj:0)
d11(3,16)                                           1 	(obj:0)
d11(3,19)                                           1 	(obj:0)
d11(3,22)                                           1 	(obj:0)
d11(3,25)                                           1 	(obj:0)
d11(3,28)                                           1 	(obj:0)
d11(3,31)                                           1 	(obj:0)
d11(3,34)                                           1 	(obj:0)
d11(3,37)                                           1 	(obj:0)
d12(1,2)                                            1 	(obj:0)
d12(1,3)                                            1 	(obj:0)
d12(3,14)                                           1 	(obj:0)
d12(3,15)                                           1 	(obj:0)
d12(3,17)                                           1 	(obj:0)
d12(3,18)                                           1 	(obj:0)
d12(3,20)                                           1 	(obj:0)
d12(3,21)                                           1 	(obj:0)
d12(3,23)                                           1 	(obj:0)
d12(3,24)                                           1 	(obj:0)
d12(3,26)                                           1 	(obj:0)
d12(3,27)                                           1 	(obj:0)
d12(3,29)                                           1 	(obj:0)
d12(3,30)                                           1 	(obj:0)
d12(3,32)                                           1 	(obj:0)
d12(3,33)                                           1 	(obj:0)
d12(3,35)                                           1 	(obj:0)
d12(3,36)                                           1 	(obj:0)
d12(3,38)                                           1 	(obj:0)
d12(3,39)                                           1 	(obj:0)
d21(2,4)                                            1 	(obj:0)
d21(3,13)                                           1 	(obj:0)
d21(3,14)                                           1 	(obj:0)
d21(3,15)                                           1 	(obj:0)
d21(3,16)                                           1 	(obj:0)
d21(3,17)                                           1 	(obj:0)
d21(3,19)                                           1 	(obj:0)
d21(3,22)                                           1 	(obj:0)
d21(3,23)                                           1 	(obj:0)
d21(3,25)                                           1 	(obj:0)
d21(3,31)                                           1 	(obj:0)
y2(3,24)                             1095.70698300004 	(obj:0)
y2(3,27)                             1095.70698300004 	(obj:0)
y2(3,30)                             1095.70698300004 	(obj:0)
y2(3,33)                             1095.70698300004 	(obj:0)
y2(3,36)                             1095.70698300004 	(obj:0)
y2(3,39)                             1095.70698300004 	(obj:0)
STE(1,1)                                         8694 	(obj:0)
STE(0,0)                                         9450 	(obj:0)
STE(1,2)                             9452.66173214995 	(obj:0)
STE(1,3)                                 10493.583366 	(obj:0)
STE(2,4)                              186.33831785005 	(obj:0)
STE(2,5)                             1183.10432118334 	(obj:0)
STE(2,6)                             2400.55652451672 	(obj:0)
STE(2,7)                                    945.00005 	(obj:0)
STE(2,8)                             1941.76605333329 	(obj:0)
STE(2,9)                             3159.21825666667 	(obj:0)
STE(2,10)                            1985.92168385004 	(obj:0)
STE(2,11)                            2982.68768718333 	(obj:0)
STE(2,12)                            4200.13989051671 	(obj:0)
STE(3,13)                           -1422.18833907801 	(obj:0)
STE(3,14)                            -569.66168214995 	(obj:0)
STE(3,15)                            471.259951700088 	(obj:0)
STE(3,16)                           -425.422335744724 	(obj:0)
STE(3,17)                            427.104321183341 	(obj:0)
STE(3,18)                            1468.02595503338 	(obj:0)
STE(3,19)                            792.029867588654 	(obj:0)
STE(3,20)                            1644.55652451672 	(obj:0)
STE(3,21)                            2685.47815836676 	(obj:0)
STE(3,22)                           -663.526606928065 	(obj:0)
STE(3,23)                                   189.00005 	(obj:0)
STE(3,24)                            1229.92168385004 	(obj:0)
STE(3,25)                            333.239396405225 	(obj:0)
STE(3,26)                             1185.7660533334 	(obj:0)
STE(3,27)                            2226.68768718333 	(obj:0)
STE(3,28)                             1550.6915997386 	(obj:0)
STE(3,29)                            2403.21825666667 	(obj:0)
STE(3,30)                            3444.13989051671 	(obj:0)
STE(3,31)                            377.395026921973 	(obj:0)
STE(3,32)                            1229.92168385004 	(obj:0)
STE(3,33)                            2270.84331770008 	(obj:0)
STE(3,34)                            1374.16103025526 	(obj:0)
STE(3,35)                            2226.68768718333 	(obj:0)
STE(3,36)                            3267.60932103337 	(obj:0)
STE(3,37)                            2591.61323358864 	(obj:0)
STE(3,38)                            3444.13989051671 	(obj:0)
STE(3,39)                            4485.06152436674 	(obj:0)
y1(3,25)                             767.273991235258 	(obj:0)
y1(3,28)                             767.273991235258 	(obj:0)
y1(3,31)                             767.273991235258 	(obj:0)
y1(3,34)                             767.273991235258 	(obj:0)
y1(3,37)                             767.273991235258 	(obj:0)
BG(3)                                 3245.3852941176 	(obj:10)
WB(1)                                3199.95851117552 	(obj:0)
AVE(1)                               3199.95851117552 	(obj:0)
AVE(2)                               3265.15049132519 	(obj:0)
WB(3)                                3291.35535332476 	(obj:0)
AVE(3)                               3291.35535332476 	(obj:0)
WG(2)                                3265.15049132519 	(obj:10)
BG(1)                                      2462.45265 	(obj:10)
BG(2)                                6316.17513207781 	(obj:10)
y1(2,4)                              6976.49551393495 	(obj:0)
y1(2,5)                              6079.40611093499 	(obj:0)
y1(2,6)                              4983.69912793495 	(obj:0)
y1(2,7)                              6976.49551393495 	(obj:0)
y1(2,8)                              6079.40611093499 	(obj:0)
y1(2,9)                              4983.69912793495 	(obj:0)
y1(2,10)                             6976.49551393495 	(obj:0)
y1(2,11)                             6079.40611093499 	(obj:0)
y1(2,12)                             4983.69912793495 	(obj:0)
y1(3,13)                             767.273991235258 	(obj:0)
y1(3,16)                             767.273991235258 	(obj:0)
y1(3,19)                             767.273991235258 	(obj:0)
y1(3,22)                             767.273991235258 	(obj:0)
y2(1,2)                              798.591296999947 	(obj:0)
y2(1,3)                              1894.29827999999 	(obj:0)
y2(3,15)                             1095.70698300004 	(obj:0)
y2(3,18)                             1095.70698300004 	(obj:0)
y2(3,21)                             1095.70698300004 	(obj:0)
